min: 33 x1_1 + 11 x1_2 + 46 x1_3 + 11 x1_4 + 66 x1_5 + 90 x1_6 + 3 x2_1 + 55 x2_2 + 13 x2_3 + 6 x2_4 + 23 x2_5 + 15 x2_6 + 53 x3_1 + 17 x3_2 + 50 x3_3 + 48 x3_4 + 30 x3_5 + 23 x3_6 + 73 x4_1 + 23 x4_2 + 48 x4_3 + 53 x4_4 + 28 x4_5 + 28 x4_6 + 19 x5_1 + 93 x5_2 + 2 x5_3 + 84 x5_4 + 20 x5_5 + 91 x5_6 + 68 x6_1 + 69 x6_2 + 42 x6_3 + 40 x6_4 + 16 x6_5 + 94 x6_6;

x1_1 + x1_2 + x1_3 + x1_4 + x1_5 + x1_6 <= 1904;
x2_1 + x2_2 + x2_3 + x2_4 + x2_5 + x2_6 <= 1192;
x3_1 + x3_2 + x3_3 + x3_4 + x3_5 + x3_6 <= 88;
x4_1 + x4_2 + x4_3 + x4_4 + x4_5 + x4_6 <= 4942;
x5_1 + x5_2 + x5_3 + x5_4 + x5_5 + x5_6 <= 860;
x6_1 + x6_2 + x6_3 + x6_4 + x6_5 + x6_6 <= 2389;

x1_1 + x2_1 + x3_1 + x4_1 + x5_1 + x6_1 >= 579;
x1_2 + x2_2 + x3_2 + x4_2 + x5_2 + x6_2 >= 1322;
x1_3 + x2_3 + x3_3 + x4_3 + x5_3 + x6_3 >= 4373;
x1_4 + x2_4 + x3_4 + x4_4 + x5_4 + x6_4 >= 20;
x1_5 + x2_5 + x3_5 + x4_5 + x5_5 + x6_5 >= 4987;
x1_6 + x2_6 + x3_6 + x4_6 + x5_6 + x6_6 >= 496;

int x1_1, x1_2, x1_3, x1_4, x1_5, x1_6, x2_1, x2_2, x2_3, x2_4, x2_5, x2_6, x3_1, x3_2, x3_3, x3_4, x3_5, x3_6, x4_1, x4_2, x4_3, x4_4, x4_5, x4_6, x5_1, x5_2, x5_3, x5_4, x5_5, x5_6, x6_1, x6_2, x6_3, x6_4, x6_5, x6_6;